##############################################
#                                            #
# Filename:.in.txt                           #
# Author: Guang Shi, 2014                    #
#                                            #
# Excute the script using:                   #
# lmp < .in.txt                              #
#                                            #
##############################################
# VARIABLES
variable       input index RCLM_n4000_c20_10.dat
variable       output index RCLM_n4000_c20_10
variable       id_end equal 4000
variable       Rd equal (x[1]-x[${id_end}])^2+(y[1]-y[${id_end}])^2+(z[1]-z[${id_end}])^2

# Initialization
units          lj
boundary       s s s
atom_style     bond
log            log.${output}.txt
read_data      ${input}

# Potential information
neighbor       2.0  bin
atom_modify    sort 0 0.0
comm_modify    cutoff 100
bond_style     harmonic
bond_coeff     1 1.5 0
bond_coeff     2 1.5 0
pair_style     none

# Equilibration (Langevin dynamics at reduced temperature 1.0)

compute        Rg all gyration
velocity       all create 1.0 85284
fix            1 all nve
fix            2 all langevin 1.0  1.0  1.0  6928703
fix            3 all recenter INIT INIT INIT
thermo_style   custom step cpuremain temp c_Rg c_Rg[1] c_Rg[2] c_Rg[3] c_Rg[4] c_Rg[5] c_Rg[6] v_Rd evdwl ebond eangle
thermo         1000
dump           1 all custom 5000 ${output}_traj id mass x y z vx vy vz
dump_modify    1 append yes
timestep       1e-05
run            100000
timestep       5e-05
run            100000
timestep       0.0001
run            100000
timestep       0.0005
run            100000
timestep       0.001
run            100000
timestep       0.001
run            100000
timestep       0.005
run            500000
timestep       0.008
run            500000
timestep       0.01
run            50000000
write_restart  restart.${output}.*

print 'All done'
